



9 9
8 8 3 11 0 4 5 18 7 11 6 3 4 2 1 15 2 15
2 19 1 13 3 5 5 18 8 4 7 3 0 13 4 18 6 11
0 5 2 9 4 2 5 19 8 7 7 6 1 18 3 12 6 4
0 11 4 17 1 8 5 3 8 13 7 7 3 17 2 2 6 1
7 5 1 15 0 6 5 7 8 11 4 5 3 14 2 1 6 19
7 11 0 13 8 13 1 9 5 12 3 19 6 16 4 5 2 1
8 11 4 10 5 6 0 15 7 10 1 7 2 13 6 1 3 2
8 5 5 12 6 15 3 15 4 18 2 18 7 9 0 4 1 1
7 13 6 2 0 9 1 12 3 13 5 4 8 1 2 11 4 8
